NAME : eil101.tsp
TYPE : TOUR
DIMENSION : 101
TOUR_LENGTH : 676.4062884252054
TOUR_SECTION
1
69
31
88
7
82
48
19
11
62
10
32
90
63
64
49
36
47
46
8
45
83
60
5
84
17
61
16
86
38
14
44
91
85
93
99
96
59
92
37
98
100
42
87
97
95
94
6
89
18
52
27
28
76
50
33
81
79
3
77
68
80
12
26
40
58
53
101
13
2
57
43
15
41
22
74
72
73
21
4
56
75
23
67
39
25
55
54
24
29
78
34
35
71
65
66
9
51
20
30
70
-1
